
******************************************************************************
This program contains Ipopt, a library for large-scale nonlinear optimization.
 Ipopt is released as open source code under the Eclipse Public License (EPL).
         For more information visit http://projects.coin-or.org/Ipopt
******************************************************************************

This is Ipopt version 3.12.6, running with linear solver ma57.

Number of nonzeros in equality constraint Jacobian...:        0
Number of nonzeros in inequality constraint Jacobian.:        0
Number of nonzeros in Lagrangian Hessian.............:   200001

Total number of variables............................:   100001
                     variables with only lower bounds:   100001
                variables with lower and upper bounds:        0
                     variables with only upper bounds:        0
Total number of equality constraints.................:        0
Total number of inequality constraints...............:        0
        inequality constraints with only lower bounds:        0
   inequality constraints with lower and upper bounds:        0
        inequality constraints with only upper bounds:        0

iter    objective    inf_pr   inf_du lg(mu)  ||d||  lg(rg) alpha_du alpha_pr  ls
   0  3.0000000e+00 0.00e+00 1.50e+00  -1.0 0.00e+00    -  0.00e+00 0.00e+00   0
   1 -9.5159298e+04 0.00e+00 1.00e-06  -1.0 1.31e+00    -  1.00e+00 1.00e+00f  1
   2 -9.9834970e+04 0.00e+00 2.00e-07  -1.7 2.86e-01    -  1.00e+00 1.00e+00f  1
   3 -9.9998684e+04 0.00e+00 2.83e-08  -2.5 1.68e-01    -  1.00e+00 1.00e+00f  1
   4 -9.9999295e+04 0.00e+00 2.83e-08  -2.5 9.94e-02    -  1.00e+00 1.00e+00f  1
   5 -9.9999498e+04 0.00e+00 1.50e-09  -3.8 6.29e-02    -  1.00e+00 1.00e+00f  1
   6 -9.9999499e+04 0.00e+00 1.50e-09  -3.8 3.30e-02    -  1.00e+00 1.00e+00f  1
   7 -9.9999500e+04 0.00e+00 6.03e-05  -5.7 1.83e-02    -  9.94e-01 1.00e+00f  1
   8 -9.9999500e+04 0.00e+00 1.84e-11  -5.7 9.29e-03    -  1.00e+00 1.00e+00f  1
   9 -9.9999500e+04 0.00e+00 1.84e-11  -5.7 4.57e-03    -  1.00e+00 1.00e+00f  1
iter    objective    inf_pr   inf_du lg(mu)  ||d||  lg(rg) alpha_du alpha_pr  ls
  10 -9.9999500e+04 0.00e+00 1.39e-06  -8.6 2.47e-03    -  9.99e-01 1.00e+00f  1
  11 -9.9999500e+04 0.00e+00 2.58e-14  -8.6 1.24e-03    -  1.00e+00 1.00e+00f  1
  12 -9.9999500e+04 0.00e+00 2.59e-14  -8.6 6.19e-04    -  1.00e+00 1.00e+00f  1
  13 -9.9999500e+04 0.00e+00 2.58e-14  -8.6 3.08e-04    -  1.00e+00 1.00e+00f  1
  14 -9.9999500e+04 0.00e+00 2.58e-14  -8.6 1.50e-04    -  1.00e+00 1.00e+00f  1
  15 -9.9999500e+04 0.00e+00 1.93e-05  -9.0 7.74e-05    -  1.00e+00 5.00e-01f  2
  16 -9.9999500e+04 0.00e+00 3.32e-05  -9.0 6.65e-05    -  1.00e+00 4.88e-04f 12
  17 -9.9999500e+04 0.00e+00 2.86e-05  -9.0 7.63e-05    -  1.00e+00 2.50e-01f  3
  18 -9.9999500e+04 0.00e+00 3.10e-05  -9.0 6.20e-05    -  1.00e+00 4.88e-04f 12
  19 -9.9999500e+04 0.00e+00 9.86e-15  -9.0 6.39e-05    -  1.00e+00 1.00e+00f  1

Number of Iterations....: 19

                                   (scaled)                 (unscaled)
Objective...............:  -9.9999500000038868e+04   -9.9999500000038868e+04
Dual infeasibility......:   9.8564044179099183e-15    9.8564044179099183e-15
Constraint violation....:   0.0000000000000000e+00    0.0000000000000000e+00
Complementarity.........:   9.7005892556962958e-10    9.7005892556962958e-10
Overall NLP error.......:   9.7005892556962958e-10    9.7005892556962958e-10


Number of objective function evaluations             = 61
Number of objective gradient evaluations             = 20
Number of equality constraint evaluations            = 0
Number of inequality constraint evaluations          = 0
Number of equality constraint Jacobian evaluations   = 0
Number of inequality constraint Jacobian evaluations = 0
Number of Lagrangian Hessian evaluations             = 19
Total CPU secs in IPOPT (w/o function evaluations)   =      1.427
Total CPU secs in NLP function evaluations           =      0.870

EXIT: Optimal Solution Found.

 ** SUBROUTINE CUTEST_csetup: Warning. The problem has no general constraints. 
 ** Other tools may be preferable ** 

************************ CUTEst statistics ************************


 Package used            :  IPOPT
 Problem                 :  DEGTRID   
 # variables             =          100001
 # constraints           =               0
 # objective functions   =        0.8200000E+02
 # objective gradients   =        0.2100000E+02
 # objective Hessians    =        0.2000000E+02
 # Hessian-vector prdct  =        0.0000000E+00
 # constraints functions =        0.0000000E+00
 # constraints gradients =        0.0000000E+00
 # constraints Hessians  =        0.0000000E+00
 Exit code               =               0
 Final f                 =  -0.9999950E+05
 Set up time             =            0.47 seconds
 Solve time              =            5.89 seconds


******************************************************************

System Time =       1.6599999666 s.
